sing20210316.12
TTAA 66121 48698
99006 29256 04509 00074 28456 06005 92762 23050 03511
85495 17806 04504 70138 10249 33503 50586 05528 12502
40758 15957 08020 30969 31160 14517 25095 41956 12022
20242 54750 11038 15422 66550 31012 10657 81549 29018
88999
77999=
TTCC 66121 48698
70858 74366 10529 50058 69570 25031 30373 59778 24018
10087 41388 08571
88913 84146 30003
77065 08580 410//=
TTDD 6612/ 48698
11913 84146 22859 84750 33824 83157 44788 77362 55742
79162 66722 75165 77644 70569 88485 69371 99456 62577
11411 61577 22381 62776 33228 55580 44214 56779 55092
39589 66087 41788
21212 11969 28014 22954 28510 33900 00000 44865 15510
55845 15520 66820 15022 77804 12019 88721 11032 99705
11030 11630 04012 22616 02010 33599 33505 44588 29010
55533 26035 66473 24525 77460 26518 88445 29518 99422
29518 11390 32022 22370 30017 33347 24514 44314 23525
55263 25017 66248 24015 77238 21012 88233 18014 99232
27018 11213 27015 22145 09549 33122 07559 44090 10068
55065 08580=
